min: c;

c = 2.75584536645084 * u1_t7_h4 + 3.09955431584173 * u1_t7_h5 + 3.97108132002539 * u1_t5_h6 + 3.97108132002539 * u1_t7_h6 + 3.6054535318211 * u1_t5_h7 + 3.6054535318211 * u1_t7_h7 + 3.6054535318211 * u1_t9_h7 + 5.51202522020883 * u1_t5_h8 + 5.51202522020883 * u1_t7_h8 + 5.51202522020883 * u1_t9_h8 + 5.51202522020883 * u1_t10_h8 + 4.74617152874016 * u1_t5_h9 + 4.74617152874016 * u1_t7_h9 + 4.74617152874016 * u1_t9_h9 + 4.74617152874016 * u1_t10_h9 + 5.53752438981844 * u1_t5_h10 + 5.53752438981844 * u1_t7_h10 + 5.53752438981844 * u1_t9_h10 + 5.53752438981844 * u1_t10_h10 + 4.32337043657653 * u1_t5_h11 + 4.32337043657653 * u1_t9_h11 + 4.32337043657653 * u1_t10_h11 + 5.79955857843981 * u1_t4_h12 + 5.79955857843981 * u1_t5_h12 + 5.79955857843981 * u1_t8_h12 + 5.79955857843981 * u1_t9_h12 + 5.79955857843981 * u1_t10_h12 + 4.90044864856185 * u1_t4_h13 + 4.90044864856185 * u1_t8_h13 + 4.90044864856185 * u1_t9_h13 + 4.90044864856185 * u1_t10_h13 + 5.17737120450916 * u1_t4_h14 + 5.17737120450916 * u1_t8_h14 + 5.17737120450916 * u1_t9_h14 + 5.17737120450916 * u1_t10_h14 + 6.44789224988034 * u1_t4_h15 + 6.44789224988034 * u1_t8_h15 + 5.88107251986944 * u1_t4_h16 + 5.88107251986944 * u1_t8_h16 + 6.48791070549549 * u1_t4_h17 + 6.48791070549549 * u1_t8_h17 + 6.500905464229 * u1_t2_h18 + 6.500905464229 * u1_t4_h18 + 6.500905464229 * u1_t6_h18 + 6.500905464229 * u1_t8_h18 + 5.3473036847247 * u1_t2_h19 + 5.3473036847247 * u1_t3_h19 + 5.3473036847247 * u1_t4_h19 + 5.3473036847247 * u1_t6_h19 + 5.29789628961896 * u1_t1_h20 + 5.29789628961896 * u1_t2_h20 + 5.29789628961896 * u1_t3_h20 + 5.29789628961896 * u1_t4_h20 + 5.29789628961896 * u1_t6_h20 + 5.09988060316776 * u1_t1_h21 + 5.09988060316776 * u1_t2_h21 + 5.09988060316776 * u1_t3_h21 + 5.56887122759636 * u1_t1_h22 + 5.56887122759636 * u1_t2_h22 + 5.56096033388904 * u1_t1_h23 + 5.56096033388904 * u1_t2_h23;
0 <= u1_t1_h20 <= 1;
0 <= u1_t1_h21 <= 1;
0 <= u1_t1_h22 <= 1;
0 <= u1_t1_h23 <= 1;
u1_t1_h20 + u1_t1_h21 + u1_t1_h22 + u1_t1_h23 = 1;
0 <= u1_t2_h18 <= 1;
0 <= u1_t2_h19 <= 1;
0 <= u1_t2_h20 <= 1;
0 <= u1_t2_h21 <= 1;
0 <= u1_t2_h22 <= 1;
0 <= u1_t2_h23 <= 1;
u1_t2_h18 + u1_t2_h19 + u1_t2_h20 + u1_t2_h21 + u1_t2_h22 + u1_t2_h23 = 2;
0 <= u1_t3_h19 <= 1;
0 <= u1_t3_h20 <= 1;
0 <= u1_t3_h21 <= 1;
u1_t3_h19 + u1_t3_h20 + u1_t3_h21 = 1;
0 <= u1_t4_h12 <= 1;
0 <= u1_t4_h13 <= 1;
0 <= u1_t4_h14 <= 1;
0 <= u1_t4_h15 <= 1;
0 <= u1_t4_h16 <= 1;
0 <= u1_t4_h17 <= 1;
0 <= u1_t4_h18 <= 1;
0 <= u1_t4_h19 <= 1;
0 <= u1_t4_h20 <= 1;
u1_t4_h12 + u1_t4_h13 + u1_t4_h14 + u1_t4_h15 + u1_t4_h16 + u1_t4_h17 + u1_t4_h18 + u1_t4_h19 + u1_t4_h20 = 3;
0 <= u1_t5_h6 <= 1;
0 <= u1_t5_h7 <= 1;
0 <= u1_t5_h8 <= 1;
0 <= u1_t5_h9 <= 1;
0 <= u1_t5_h10 <= 1;
0 <= u1_t5_h11 <= 1;
0 <= u1_t5_h12 <= 1;
u1_t5_h6 + u1_t5_h7 + u1_t5_h8 + u1_t5_h9 + u1_t5_h10 + u1_t5_h11 + u1_t5_h12 = 3;
0 <= u1_t6_h18 <= 1;
0 <= u1_t6_h19 <= 1;
0 <= u1_t6_h20 <= 1;
u1_t6_h18 + u1_t6_h19 + u1_t6_h20 = 2;
0 <= u1_t7_h4 <= 1;
0 <= u1_t7_h5 <= 1;
0 <= u1_t7_h6 <= 1;
0 <= u1_t7_h7 <= 1;
0 <= u1_t7_h8 <= 1;
0 <= u1_t7_h9 <= 1;
0 <= u1_t7_h10 <= 1;
u1_t7_h4 + u1_t7_h5 + u1_t7_h6 + u1_t7_h7 + u1_t7_h8 + u1_t7_h9 + u1_t7_h10 = 2;
0 <= u1_t8_h12 <= 1;
0 <= u1_t8_h13 <= 1;
0 <= u1_t8_h14 <= 1;
0 <= u1_t8_h15 <= 1;
0 <= u1_t8_h16 <= 1;
0 <= u1_t8_h17 <= 1;
0 <= u1_t8_h18 <= 1;
u1_t8_h12 + u1_t8_h13 + u1_t8_h14 + u1_t8_h15 + u1_t8_h16 + u1_t8_h17 + u1_t8_h18 = 2;
0 <= u1_t9_h7 <= 1;
0 <= u1_t9_h8 <= 1;
0 <= u1_t9_h9 <= 1;
0 <= u1_t9_h10 <= 1;
0 <= u1_t9_h11 <= 1;
0 <= u1_t9_h12 <= 1;
0 <= u1_t9_h13 <= 1;
0 <= u1_t9_h14 <= 1;
u1_t9_h7 + u1_t9_h8 + u1_t9_h9 + u1_t9_h10 + u1_t9_h11 + u1_t9_h12 + u1_t9_h13 + u1_t9_h14 = 3;
0 <= u1_t10_h8 <= 1;
0 <= u1_t10_h9 <= 1;
0 <= u1_t10_h10 <= 1;
0 <= u1_t10_h11 <= 1;
0 <= u1_t10_h12 <= 1;
0 <= u1_t10_h13 <= 1;
0 <= u1_t10_h14 <= 1;
u1_t10_h8 + u1_t10_h9 + u1_t10_h10 + u1_t10_h11 + u1_t10_h12 + u1_t10_h13 + u1_t10_h14 = 3;
